COLUMNS

passenger_count
pickup_ID
dropoff_ID
request_time_sec
pickup_district
dropoff_district
LDuals
IDuals
vehicle_ID
pick_position
drop_position

REQUESTS_INFO
1      549       627       29224     52        189       111       111       327       1         2         
3      972       250       29221     290       127       128       128       339       1         2         
1      1010      959       29227     290       291       126       126       366       1         3         
3      723       604       29225     290       189       125       125       369       1         3         
1      1024      1245      29191     291       192       236       236       395       1         2         
1      1187      1180      29227     291       84        138       138       436       1         2         
3      584       906       29216     189       290       163       163       565       1         2         
1      458       605       29235     52        189       94        94        587       1         3         
1      802       78        29228     291       9         131       131       613       1         3         
1      330       600       29210     127       280       168       168       653       1         2         
1      1044      824       29245     291       291       173       173       735       1         3         
1      812       768       29217     290       290       146       146       805       1         2         
1      888       673       29216     290       189       175.5     175.5     853       1         4         
1      200       287       29226     87        299       177       177       925       1         2         
1      815       604       29226     290       189       128       128       986       1         3         
1      959       881       29225     291       290       197       197       1005      1         2         
1      726       534       29205     290       199       143       143       1016      1         2         
1      773       670       29239     290       280       109       109       1028      1         3         
2      1088      1149      29192     291       291       199       199       1126      1         2         
3      199       672       29207     178       189       230       230       1130      1         2         
2      433       433       29242     52        52        134       134       1136      1         2         
3      631       700       29246     189       290       122       122       1138      1         2         
3      972       250       29221     290       127       128       128       1189      1         2         
1      1027      1151      29245     50        291       167       167       1234      1         2         
2      210       694       29151     266       189       201       201       1838      1         2         
1      139       392       29225     57        52        153       153       1856      1         3         
1      771       699       29213     290       290       162       162       1901      1         2         
1      476       743       29248     52        290       133       133       1907      1         3         
1      773       789       29226     290       290       122       122       1918      1         2         
1      366       555       29235     299       199       155       155       1928      1         2         
1      457       325       29218     52        299       160       160       1951      1         2         
1      827       576       29231     291       189       106       106       1977      1         2         
3      980       805       29250     291       291       0         0         0         0         0         
3      980       805       29250     291       291       0         0         0         0         0         
1      608       395       29250     189       100       0         0         0         0         0         
2      410       597       29250     52        131       0         0         0         0         0         
1      772       134       29250     290       9         0         0         0         0         0         
1      415       546       29250     100       52        0         0         0         0         0         
2      438       463       29251     100       168       0         0         0         0         0         
2      1053      836       29251     84        290       0         0         0         0         0         
2      578       749       29251     189       290       0         0         0         0         0         
1      691       640       29251     131       131       0         0         0         0         0         
1      183       216       29251     178       178       0         0         0         0         0         
3      527       648       29251     52        189       0         0         0         0         0         
3      438       463       29251     100       168       0         0         0         0         0         
3      1053      836       29251     84        290       0         0         0         0         0         
1      66        601       29251     98        189       0         0         0         0         0         
1      804       465       29252     291       199       0         0         0         0         0         
1      273       397       29252     206       168       0         0         0         0         0         
2      702       836       29252     290       290       0         0         0         0         0         
1      345       651       29252     299       189       0         0         0         0         0         
1      292       532       29252     87        199       0         0         0         0         0         
1      778       1263      29252     131       192       0         0         0         0         0         
1      59        46        29252     999       98        0         0         0         0         0         
3      535       416       29253     189       100       0         0         0         0         0         
2      968       720       29253     290       290       0         0         0         0         0         
3      535       416       29253     189       100       0         0         0         0         0         
1      509       698       29253     199       189       0         0         0         0         0         
1      333       604       29253     119       189       0         0         0         0         0         
1      693       698       29253     280       189       0         0         0         0         0         
1      888       648       29253     290       189       0         0         0         0         0         
1      794       505       29253     290       52        0         0         0         0         0         
1      31        116       29254     9         9         0         0         0         0         0         
1      217       544       29254     87        52        0         0         0         0         0         
2      748       1518      29254     290       296       0         0         0         0         0         
2      743       722       29254     290       290       0         0         0         0         0         
1      714       488       29255     131       199       0         0         0         0         0         
1      813       992       29255     290       290       0         0         0         0         0         
1      345       616       29255     299       131       0         0         0         0         0         
1      331       478       29255     127       52        0         0         0         0         0         
1      1095      1140      29255     84        84        0         0         0         0         0         
1      529       602       29255     189       189       0         0         0         0         0         
3      413       555       29256     52        199       0         0         0         0         0         
3      413       555       29256     52        199       0         0         0         0         0         
1      624       696       29256     189       189       0         0         0         0         0         
1      577       509       29256     189       199       0         0         0         0         0         
1      1149      718       29256     291       189       0         0         0         0         0         
1      971       1055      29256     290       84        0         0         0         0         0         
1      556       598       29256     199       189       0         0         0         0         0         
1      246       499       29257     266       52        0         0         0         0         0         
1      485       609       29257     189       189       0         0         0         0         0         
2      1234      535       29257     129       189       0         0         0         0         0         
3      1234      535       29257     129       189       0         0         0         0         0         
1      891       760       29257     291       291       0         0         0         0         0         
1      348       576       29257     299       189       0         0         0         0         0         
1      331       531       29258     127       189       0         0         0         0         0         
2      498       229       29258     52        266       0         0         0         0         0         
1      377       439       29258     168       189       0         0         0         0         0         
1      669       501       29258     280       52        0         0         0         0         0         
1      432       555       29258     52        199       0         0         0         0         0         
1      947       604       29258     290       189       0         0         0         0         0         
1      814       887       29259     290       290       0         0         0         0         0         
1      694       34        29259     189       98        0         0         0         0         0         
3      972       558       29259     290       189       0         0         0         0         0         
2      972       558       29259     290       189       0         0         0         0         0         
3      816       881       29259     290       290       0         0         0         0         0         
2      694       698       29259     189       189       0         0         0         0         0         
2      816       881       29259     290       290       0         0         0         0         0         
1      800       694       29259     131       189       0         0         0         0         0         
1      687       718       29259     131       189       0         0         0         0         0         
1      1225      747       29260     192       290       0         0         0         0         0         
1      676       795       29260     189       290       0         0         0         0         0         
1      210       696       29260     266       189       0         0         0         0         0         
2      842       487       29260     290       199       0         0         0         0         0         
1      344       390       29261     299       52        0         0         0         0         0         
1      839       574       29261     290       189       0         0         0         0         0         
1      189       43        29261     286       9         0         0         0         0         0         
1      454       175       29261     52        266       0         0         0         0         0         
1      430       651       29262     52        189       0         0         0         0         0         
1      568       597       29262     52        131       0         0         0         0         0         
1      358       902       29262     168       50        0         0         0         0         0         
1      47        732       29263     98        131       0         0         0         0         0         
1      389       503       29263     299       52        0         0         0         0         0         
1      509       534       29263     199       199       0         0         0         0         0         
1      509       410       29263     199       52        0         0         0         0         0         
1      528       694       29263     52        189       0         0         0         0         0         
1      34        594       29263     98        131       0         0         0         0         0         
1      961       779       29264     291       131       0         0         0         0         0         
1      742       946       29264     290       290       0         0         0         0         0         
1      937       1107      29264     291       291       0         0         0         0         0         
1      483       742       29264     189       290       0         0         0         0         0         
1      248       327       29264     266       299       0         0         0         0         0         
2      702       551       29264     290       189       0         0         0         0         0         
3      702       551       29264     290       189       0         0         0         0         0         
1      444       554       29264     168       189       0         0         0         0         0         
2      1047      1024      29265     291       291       0         0         0         0         0         
3      1047      1024      29265     291       291       0         0         0         0         0         
1      852       959       29265     291       291       0         0         0         0         0         
1      211       348       29265     266       299       0         0         0         0         0         
1      252       484       29265     206       189       0         0         0         0         0         
1      1068      531       29265     291       189       0         0         0         0         0         
1      882       945       29265     290       50        0         0         0         0         0         
1      527       63        29266     52        98        0         0         0         0         0         
1      369       601       29266     52        189       0         0         0         0         0         
3      990       870       29266     290       291       0         0         0         0         0         
2      873       576       29267     291       189       0         0         0         0         0         
1      555       709       29267     199       131       0         0         0         0         0         
1      916       651       29267     291       189       0         0         0         0         0         
3      873       576       29267     291       189       0         0         0         0         0         
1      526       667       29267     52        131       0         0         0         0         0         
1      698       859       29268     189       290       0         0         0         0         0         
2      375       250       29268     119       127       0         0         0         0         0         
1      310       400       29268     127       168       0         0         0         0         0         
2      575       457       29268     189       52        0         0         0         0         0         
3      575       457       29268     189       52        0         0         0         0         0         
1      348       331       29269     299       127       0         0         0         0         0         
3      171       304       29269     286       299       0         0         0         0         0         
1      389       626       29269     299       189       0         0         0         0         0         
1      694       828       29269     189       291       0         0         0         0         0         
1      1107      1225      29269     291       192       0         0         0         0         0         
1      888       34        29269     290       98        0         0         0         0         0         
1      389       615       29269     299       131       0         0         0         0         0         
1      669       604       29270     280       189       0         0         0         0         0         
1      630       657       29270     189       999       0         0         0         0         0         
1      771       1011      29270     290       84        0         0         0         0         0         
2      549       475       29270     52        52        0         0         0         0         0         
3      914       672       29270     291       189       0         0         0         0         0         
1      440       331       29270     168       127       0         0         0         0         0         
1      983       743       29270     291       290       0         0         0         0         0         
1      676       882       29270     189       290       0         0         0         0         0         
1      621       673       29270     280       189       0         0         0         0         0         
1      841       459       29270     290       189       0         0         0         0         0         
1      812       947       29270     290       290       0         0         0         0         0         
1      508       579       29271     199       189       0         0         0         0         0         
1      295       552       29271     87        189       0         0         0         0         0         
1      835       946       29271     290       290       0         0         0         0         0         
1      118       528       29271     286       52        0         0         0         0         0         
1      629       724       29272     189       290       0         0         0         0         0         
1      43        49        29272     9         98        0         0         0         0         0         
1      816       554       29272     290       189       0         0         0         0         0         
1      621       625       29273     280       189       0         0         0         0         0         
1      549       668       29273     52        280       0         0         0         0         0         
1      672       557       29273     189       189       0         0         0         0         0         
2      621       648       29274     280       189       0         0         0         0         0         
1      835       396       29274     290       119       0         0         0         0         0         
1      134       126       29274     9         178       0         0         0         0         0         
1      1180      377       29274     84        168       0         0         0         0         0         
1      722       527       29274     290       52        0         0         0         0         0         
1      651       904       29274     189       290       0         0         0         0         0         
1      533       504       29274     199       52        0         0         0         0         0         
1      444       10        29275     168       98        0         0         0         0         0         
3      654       534       29275     189       199       0         0         0         0         0         
1      527       557       29275     52        189       0         0         0         0         0         
3      654       534       29275     189       199       0         0         0         0         0         
1      745       651       29275     290       189       0         0         0         0         0         
1      991       698       29275     290       189       0         0         0         0         0         
1      842       627       29275     290       189       0         0         0         0         0         
1      936       603       29275     291       189       0         0         0         0         0         
1      352       462       29275     119       189       0         0         0         0         0         
1      969       1227      29275     290       192       0         0         0         0         0         
1      748       810       29275     290       290       0         0         0         0         0         
3      621       834       29276     280       290       0         0         0         0         0         
1      257       629       29276     87        189       0         0         0         0         0         
1      267       252       29276     266       206       0         0         0         0         0         
1      842       397       29276     290       168       0         0         0         0         0         
1      980       923       29277     291       290       0         0         0         0         0         
1      171       523       29277     286       52        0         0         0         0         0         
1      523       727       29277     52        290       0         0         0         0         0         
1      355       134       29277     119       9         0         0         0         0         0         
2      629       1099      29277     189       84        0         0         0         0         0         
3      629       1099      29277     189       84        0         0         0         0         0         
3      488       267       29278     199       266       0         0         0         0         0         
3      488       267       29278     199       266       0         0         0         0         0         
1      726       782       29278     290       291       0         0         0         0         0         
1      43        10        29278     9         98        0         0         0         0         0         
1      333       461       29278     119       189       0         0         0         0         0         
1      1026      1217      29278     291       84        0         0         0         0         0         
1      573       175       29278     189       266       0         0         0         0         0         
1      618       647       29278     131       280       0         0         0         0         0         
2      696       870       29278     189       291       0         0         0         0         0         
1      1048      1218      29278     291       84        0         0         0         0         0         
1      174       116       29278     266       9         0         0         0         0         0         
1      355       123       29279     119       54        0         0         0         0         0         
1      507       210       29279     189       266       0         0         0         0         0         
1      702       231       29279     290       266       0         0         0         0         0         
1      906       836       29279     290       290       0         0         0         0         0         
1      768       476       29279     290       52        0         0         0         0         0         
1      602       507       29279     189       189       0         0         0         0         0         
4      487       678       29279     199       290       0         0         0         0         0         
2      418       529       29279     168       189       0         0         0         0         0         
